(declare-fun limit_ack!114 () (_ BitVec 64))
(declare-fun epsabs_ack!119 () (_ BitVec 64))
(declare-fun epsrel_ack!113 () (_ BitVec 64))
(declare-fun a_ack!120 () (_ BitVec 64))
(declare-fun x1_ack!115 () (_ BitVec 64))
(declare-fun x2_ack!116 () (_ BitVec 64))
(declare-fun x3_ack!117 () (_ BitVec 64))
(declare-fun b_ack!118 () (_ BitVec 64))
(assert (not (bvult #x00000000000003e8 limit_ack!114)))
(assert (fp.leq ((_ to_fp 11 53) epsabs_ack!119) ((_ to_fp 11 53) #x0000000000000000)))
(assert (not (fp.lt ((_ to_fp 11 53) epsrel_ack!113)
            ((_ to_fp 11 53) #x3d09000000000000))))
(assert (not (fp.lt ((_ to_fp 11 53) epsrel_ack!113)
            ((_ to_fp 11 53) #x3a0fb0f6be506019))))
(assert (not (fp.lt ((_ to_fp 11 53) x1_ack!115) ((_ to_fp 11 53) a_ack!120))))
(assert (not (fp.lt ((_ to_fp 11 53) x2_ack!116) ((_ to_fp 11 53) x1_ack!115))))
(assert (not (fp.lt ((_ to_fp 11 53) x3_ack!117) ((_ to_fp 11 53) x2_ack!116))))
(assert (not (fp.lt ((_ to_fp 11 53) b_ack!118) ((_ to_fp 11 53) x3_ack!117))))

(check-sat)
(exit)
